solution status: gap limit reached
objective value:                          28501.82818
y#4                                                 1 	(obj:5700)
y#22                                                1 	(obj:5700)
y#23                                                1 	(obj:5700)
y#29                                                1 	(obj:5700)
y#30                                                1 	(obj:5700)
x#1#29                                              1 	(obj:0.01921)
x#2#4                                               1 	(obj:0.06001)
x#3#23                                              1 	(obj:0.01717)
x#4#22                                              1 	(obj:0.0544)
x#5#30                                              1 	(obj:0.01547)
x#6#29                                              1 	(obj:0.03094)
x#7#23                                              1 	(obj:0.00867)
x#8#29                                              1 	(obj:0.02261)
x#9#30                                              1 	(obj:0.01581)
x#10#23                                             1 	(obj:0.01309)
x#11#30                                             1 	(obj:0.05576)
x#12#4                                              1 	(obj:0.01615)
x#13#22                                             1 	(obj:0.07038)
x#14#29                                             1 	(obj:0.03485)
x#15#23                                             1 	(obj:0.02873)
x#16#22                                             1 	(obj:0.02448)
x#17#23                                             1 	(obj:0.0136)
x#18#23                                             1 	(obj:0.04352)
x#19#23                                             1 	(obj:0.05015)
x#20#29                                             1 	(obj:0.17187)
x#21#22                                             1 	(obj:0.02567)
x#22#4                                              1 	(obj:0.0425)
x#23#29                                             1 	(obj:0.01666)
x#24#4                                              1 	(obj:0.01547)
x#25#4                                              1 	(obj:0.03009)
x#26#22                                             1 	(obj:0.08211)
x#27#4                                              1 	(obj:0.03706)
x#28#23                                             1 	(obj:0.02414)
x#29#4                                              1 	(obj:0.01853)
x#30#30                                             1 	(obj:0.03927)
x#31#29                                             1 	(obj:0.02533)
x#32#22                                             1 	(obj:0.05576)
x#33#29                                             1 	(obj:0.03876)
x#34#30                                             1 	(obj:0.01717)
x#35#22                                             1 	(obj:0.01615)
x#36#22                                             1 	(obj:0.01479)
x#37#22                                             1 	(obj:0.04539)
x#38#23                                             1 	(obj:0.02329)
x#39#23                                             1 	(obj:0.02567)
x#40#23                                             1 	(obj:0.02533)
x#41#30                                             1 	(obj:0.01156)
x#42#29                                             1 	(obj:0.0391)
x#43#4                                              1 	(obj:0.017)
x#44#30                                             1 	(obj:0.01904)
x#45#23                                             1 	(obj:0.03587)
x#46#30                                             1 	(obj:0.08347)
x#47#30                                             1 	(obj:0.02873)
x#48#22                                             1 	(obj:0.03587)
x#49#4                                              1 	(obj:0.00221)
x#50#29                                             1 	(obj:0.0153)
x#51#30                                             1 	(obj:0.04522)
x#52#4                                              1 	(obj:0.00969)
x#53#22                                             1 	(obj:0.02975)
x#54#30                                             1 	(obj:0.0204)
x#55#22                                             1 	(obj:0.01496)
x#56#4                                              1 	(obj:0.034)
